Set parameter Username
Academic license - for non-commercial use only - expires 2023-12-01
Set parameter TimeLimit to value 3600
Set parameter MIPGap to value 1e-06
Set parameter Threads to value 1
Set parameter NodefileStart to value 0.5
Set parameter NodefileDir to value "/home/jossian/Downloads"
Set parameter MIPGap to value 1e-06
Set parameter Threads to value 1
Set parameter NodefileDir to value "/home/jossian/Downloads"
Set parameter NodefileStart to value 0.5
Set parameter TimeLimit to value 3600
Gurobi Optimizer version 10.0.0 build v10.0.0rc2 (linux64)

CPU model: Intel(R) Core(TM) i5-1035G1 CPU @ 1.00GHz, instruction set [SSE2|AVX|AVX2|AVX512]
Thread count: 4 physical cores, 8 logical processors, using up to 1 threads

Optimize a model with 239401 rows, 80200 columns and 559000 nonzeros
Model fingerprint: 0xd34906e7
Variable types: 0 continuous, 80200 integer (80200 binary)
Coefficient statistics:
  Matrix range     [1e+00, 2e+01]
  Objective range  [1e+00, 5e+01]
  Bounds range     [0e+00, 0e+00]
  RHS range        [1e+00, 9e+02]
Found heuristic solution: objective 11.0000000
Presolve removed 79800 rows and 0 columns
Presolve time: 2.58s
Presolved: 159601 rows, 80200 columns, 319600 nonzeros
Variable types: 0 continuous, 80200 integer (80200 binary)
Found heuristic solution: objective 51660.000000
Root relaxation presolved: 159601 rows, 80200 columns, 319600 nonzeros


Root simplex log...

Iteration    Objective       Primal Inf.    Dual Inf.      Time
   17903    1.4598980e+06   7.821667e+04   0.000000e+00      5s
   63072    5.8423013e+05   1.913642e+04   0.000000e+00     10s
   82851    3.9970117e+05   1.042633e+04   0.000000e+00     15s
   91871    3.6282698e+05   1.231967e+04   0.000000e+00     20s
   96711    3.5303226e+05   9.501788e+03   0.000000e+00     25s
   97798    3.5189276e+05   0.000000e+00   0.000000e+00     27s

Root relaxation: objective 3.518928e+05, 97798 iterations, 24.46 seconds (31.44 work units)

    Nodes    |    Current Node    |     Objective Bounds      |     Work
 Expl Unexpl |  Obj  Depth IntInf | Incumbent    BestBd   Gap | It/Node Time

     0     0 351892.759    0 80200 51660.0000 351892.759   581%     -   27s
H    0     0                    324906.00000 351892.759  8.31%     -   27s
     0     0 344572.697    0 41041 324906.000 344572.697  6.05%     -   55s
     0     0 328113.715    0 17561 324906.000 328113.715  0.99%     -   92s
     0     0 327191.458    0 14305 324906.000 327191.458  0.70%     -  112s
     0     0 326709.011    0 13702 324906.000 326709.011  0.55%     -  132s
H    0     0                    325607.00000 326709.011  0.34%     -  133s
     0     0 326582.470    0 13747 325607.000 326582.470  0.30%     -  142s
     0     0 326575.439    0 13762 325607.000 326575.439  0.30%     -  145s
     0     0 326575.418    0 13762 325607.000 326575.418  0.30%     -  145s
     0     0 326529.068    0 13773 325607.000 326529.068  0.28%     -  167s
     0     0 326529.068    0 41568 325607.000 326529.068  0.28%     -  187s
     0     0 326529.068    0 18663 325607.000 326529.068  0.28%     -  245s
     0     0 326529.068    0 18776 325607.000 326529.068  0.28%     -  268s
     0     0 326529.068    0 13756 325607.000 326529.068  0.28%     -  282s
     0     0 326529.068    0 13761 325607.000 326529.068  0.28%     -  290s
     0     0 326529.068    0 13770 325607.000 326529.068  0.28%     -  292s
     0     0 326529.068    0 13771 325607.000 326529.068  0.28%     -  292s
     0     0 326529.068    0 13771 325607.000 326529.068  0.28%     -  298s
H    0     0                    325862.00000 326529.068  0.20%     -  324s
H    0     0                    326030.00000 326529.068  0.15%     -  324s
H    0     0                    326079.00000 326529.068  0.14%     -  335s
     0     0 326529.068    0 31125 326079.000 326529.068  0.14%     -  346s
     0     0 326529.068    0 14885 326079.000 326529.068  0.14%     -  372s
     0     0 326529.068    0 13741 326079.000 326529.068  0.14%     -  385s
     0     0 326529.068    0 13766 326079.000 326529.068  0.14%     -  392s
     0     0 326529.068    0 13772 326079.000 326529.068  0.14%     -  396s
     0     0 326529.068    0 13772 326079.000 326529.068  0.14%     -  397s
     0     0 326529.068    0 13771 326079.000 326529.068  0.14%     -  400s
     0     0 326521.441    0 13796 326079.000 326521.441  0.14%     -  407s
     0     0 326521.441    0 13796 326079.000 326521.441  0.14%     -  408s
     0     0 326521.441    0 26564 326079.000 326521.441  0.14%     -  448s
     0     0 326521.441    0 14661 326079.000 326521.441  0.14%     -  490s
     0     0 326521.441    0 13718 326079.000 326521.441  0.14%     -  502s
     0     0 326521.441    0 13764 326079.000 326521.441  0.14%     -  506s
     0     0 326521.441    0 13787 326079.000 326521.441  0.14%     -  509s
     0     0 326521.441    0 13789 326079.000 326521.441  0.14%     -  509s
     0     0 326521.299    0 13790 326079.000 326521.299  0.14%     -  511s
     0     0 326521.144    0 13792 326079.000 326521.144  0.14%     -  512s
     0     0 326512.429    0 13797 326079.000 326512.429  0.13%     -  517s
     0     0 326512.429    0 13796 326079.000 326512.429  0.13%     -  518s
     0     2 326512.417    0 13796 326079.000 326512.417  0.13%     -  552s
     1     4 326344.285    1 13427 326079.000 326512.417  0.13%  3959  559s
     2     5 326489.225    1 13304 326079.000 326489.225  0.13%  2588  561s
     4     6 326373.743    2 13289 326079.000 326373.743  0.09%  2565  569s
     5     7 326243.217    3 13302 326079.000 326373.613  0.09%  2759  575s
     7     9 326176.768    4 13190 326079.000 326363.009  0.09%  2618  582s
     9    11 326098.617    5 13061 326079.000 326363.009  0.09%  2544  589s
    10    12 326132.033    5 12907 326079.000 326363.009  0.09%  2366  590s
    12    14 326110.406    6 12799 326079.000 326363.009  0.09%  2228  595s
    22    14 326232.837    3 13020 326079.000 326362.923  0.09%  1433  602s
    23    15 326127.870    4 13017 326079.000 326362.923  0.09%  1488  607s
    26    15 326079.904    5 12885 326079.000 326362.923  0.09%  1411  611s
    30    13 326248.830    3 13153 326079.000 326344.174  0.08%  1386  619s
    31    14 326146.002    4 12872 326079.000 326344.174  0.08%  1382  621s
    32    15 326141.935    4 13162 326079.000 326344.174  0.08%  1446  626s
    35    14     cutoff    6      326079.000 326344.174  0.08%  1408  631s
    43    12 326198.574    2 13430 326079.000 326343.920  0.08%  1297  641s
    46    13 326095.013    3 13447 326079.000 326343.920  0.08%  1304  647s
    50    11 326245.685    2 13302 326079.000 326245.685  0.05%  1247  651s
    54    15 326083.932    6  478 326079.000 326245.685  0.05%  1251  658s
    58    11     cutoff    5      326079.000 326245.685  0.05%  1191  660s
    59    12 326142.763    3 13309 326079.000 326243.126  0.05%  1223  666s
    61    12 326081.152    4 13333 326079.000 326243.126  0.05%  1233  670s
    64    11 326149.788    4 13316 326079.000 326242.711  0.05%  1222  675s
    78    11 326158.017    4 13175 326079.000 326176.647  0.03%  1064  680s
    84    15 326092.714    9  321 326079.000 326176.647  0.03%  1024  685s
    90    13 326110.420    5 8396 326079.000 326176.103  0.03%  1007  690s
   103    12     cutoff    7      326079.000 326160.102  0.02%   915  695s
   112    13 326086.550    9  162 326079.000 326160.102  0.02%   877  700s
   116     9     cutoff    5      326079.000 326149.352  0.02%   883  706s
   118     9 326080.271    6  936 326079.000 326121.847  0.01%   894  710s

Cutting planes:
  GUB cover: 42
  Zero half: 3
  Mod-K: 1
  RLT: 176

Explored 140 nodes (541558 simplex iterations) in 714.65 seconds (1719.00 work units)
Thread count was 1 (of 8 available processors)

Solution count 7: 326079 326030 325862 ... 11

Optimal solution found (tolerance 1.00e-06)
Best objective 3.260790000000e+05, best bound 3.260790000000e+05, gap 0.0000%

User-callback calls 35678, time in user-callback 0.07 sec
